p cnf 60 32
r 0.526 60 0
e 30 0
r 0.549 59 0
e 29 0
r 0.364 58 0
e 28 0
r 0.381 57 0
e 27 0
r 0.997 56 0
e 26 0
r 0.439 55 0
e 25 0
r 0.678 54 0
e 24 0
r 0.706 53 0
e 23 0
r 0.502 52 0
e 22 0
r 0.54 51 0
e 21 0
r 0.199 50 0
e 20 0
r 0.525 49 0
e 19 0
r 0.915 48 0
e 18 0
r 0.035 47 0
e 17 0
r 0.727 46 0
e 16 0
r 0.365 45 0
e 15 0
r 0.059 44 0
e 14 0
r 0.936 43 0
e 13 0
r 0.811 42 0
e 12 0
r 0.586 41 0
e 11 0
r 0.063 40 0
e 10 0
r 0.47 39 0
e 9 0
r 0.358 38 0
e 8 0
r 0.409 37 0
e 7 0
r 0.389 36 0
e 6 0
r 0.396 35 0
e 5 0
r 0.306 34 0
e 4 0
r 0.229 33 0
e 3 0
r 0.885 32 0
e 2 0
r 0.867 31 0
e 1 0
-30 0
30 59 -29 -58 -28 0
29 58 -28 -57 -27 0
28 57 -27 -56 -26 0
27 56 -26 -55 -25 0
26 55 -25 -54 -24 0
25 54 -24 -53 -23 0
24 53 -23 -52 -22 0
23 52 -22 -51 -21 0
22 51 -21 -50 -20 0
21 50 -20 -49 -19 0
20 49 -19 -48 -18 0
19 48 -18 -47 -17 0
18 47 -17 -46 -16 0
17 46 -16 -45 -15 0
16 45 -15 -44 -14 0
15 44 -14 -43 -13 0
14 43 -13 -42 -12 0
13 42 -12 -41 -11 0
12 41 -11 -40 -10 0
11 40 -10 -39 -9 0
10 39 -9 -38 -8 0
9 38 -8 -37 -7 0
8 37 -7 -36 -6 0
7 36 -6 -35 -5 0
6 35 -5 -34 -4 0
5 34 -4 -33 -3 0
4 33 -3 -32 -2 0
3 32 -2 -31 -1 0
2 1 0
2 -1 0
-2 1 0
